
Gurobi 11.0.3 (linux64) logging started Sun Nov 24 02:01:06 2024

Set parameter LogFile to value "/home/yihong/Coding/OR_SUC/SUC_results_bigM100000_thread4/case24_ieee_rts_theta0.5_epsilon0.05_gurobi_seed1460000_num_gen100_N_WDR100_load_scaling_factor1_exact_T24quadra_cost.txt"
Set parameter TimeLimit to value 3600
Gurobi Optimizer version 11.0.3 build v11.0.3rc0 (linux64 - "Ubuntu 20.04.6 LTS")

CPU model: AMD EPYC 7532 32-Core Processor, instruction set [SSE2|AVX|AVX2]
Thread count: 64 physical cores, 128 logical processors, using up to 4 threads

Optimize a model with 57659 rows, 29961 columns and 1325658 nonzeros
Model fingerprint: 0x8ad19089
Model has 2400 quadratic constraints
Variable types: 27461 continuous, 2500 integer (2500 binary)
Coefficient statistics:
  Matrix range     [1e-04, 1e+05]
  QMatrix range    [2e-03, 8e-03]
  QLMatrix range   [4e-01, 6e+01]
  Objective range  [1e+00, 1e+00]
  Bounds range     [1e+00, 1e+00]
  RHS range        [1e+00, 1e+05]
Presolve removed 47100 rows and 12684 columns
Presolve time: 0.42s
Presolved: 10559 rows, 17277 columns, 58790 nonzeros
Presolved model has 2400 quadratic constraint(s)
Variable types: 14785 continuous, 2492 integer (2492 binary)

Root relaxation: objective 4.827478e+04, 8542 iterations, 0.25 seconds (0.33 work units)

    Nodes    |    Current Node    |     Objective Bounds      |     Work
 Expl Unexpl |  Obj  Depth IntInf | Incumbent    BestBd   Gap | It/Node Time

     0     0 48274.7782    0   17          - 48274.7782      -     -    0s
     0     0 366656.434    0  713          - 366656.434      -     -    1s
     0     0 412673.085    0  657          - 412673.085      -     -    1s
     0     0 655777.420    0  607          - 655777.420      -     -    1s
     0     0 656008.080    0  415          - 656008.080      -     -    2s
     0     0 656429.094    0  424          - 656429.094      -     -    2s
     0     0 656469.950    0  374          - 656469.950      -     -    2s
     0     0 656471.701    0  374          - 656471.701      -     -    2s
     0     0 656474.359    0  374          - 656474.359      -     -    2s
     0     0 656474.359    0  373          - 656474.359      -     -    2s
     0     0 656474.359    0  373          - 656474.359      -     -    2s
     0     2 656474.359    0  373          - 656474.359      -     -    4s
   114   144 656707.688   27  200          - 656478.710      -  64.7    5s
H  364   298                    656751.63635 656482.802  0.04%  28.4    5s
*  364   298             125    656751.63635 656482.802  0.04%  28.4    5s

Cutting planes:
  Gomory: 2
  Implied bound: 225
  MIR: 83
  Flow cover: 78
  Relax-and-lift: 32

Explored 437 nodes (35092 simplex iterations) in 6.27 seconds (7.60 work units)
Thread count was 4 (of 128 available processors)

Solution count 2: 656752 656752 

Optimal solution found (tolerance 1.00e-03)
Warning: max constraint violation (3.1610e-07) exceeds tolerance
Best objective 6.567516363490e+05, best bound 6.564828079363e+05, gap 0.0409%
